Problem:    farm
Rows:       126
Columns:    200 (150 integer, 0 binary)
Non-zeros:  454
Status:     INTEGER OPTIMAL
Objective:  FinalMoney = 322 (MAXimum)

   No.   Row name        Activity     Lower bound   Upper bound
------ ------------    ------------- ------------- -------------
     1 InitialMoney               20            20             = 
     2 MorningPurchase[1]
                                   0            -0             = 
     3 MorningPurchase[2]
                                   0            -0             = 
     4 MorningPurchase[3]
                                   0            -0             = 
     5 MorningPurchase[4]
                                   0            -0             = 
     6 MorningPurchase[5]
                                   0            -0             = 
     7 MorningPurchase[6]
                                   0            -0             = 
     8 MorningPurchase[7]
                                   0            -0             = 
     9 MorningPurchase[8]
                                   0            -0             = 
    10 MorningPurchase[9]
                                   0            -0             = 
    11 MorningPurchase[10]
                                   0            -0             = 
    12 MorningPurchase[11]
                                   0            -0             = 
    13 MorningPurchase[12]
                                   0            -0             = 
    14 MorningPurchase[13]
                                   0            -0             = 
    15 MorningPurchase[14]
                                   0            -0             = 
    16 MorningPurchase[15]
                                   0            -0             = 
    17 MorningPurchase[16]
                                   0            -0             = 
    18 MorningPurchase[17]
                                   0            -0             = 
    19 MorningPurchase[18]
                                   0            -0             = 
    20 MorningPurchase[19]
                                   0            -0             = 
    21 MorningPurchase[20]
                                   0            -0             = 
    22 MorningPurchase[21]
                                   0            -0             = 
    23 MorningPurchase[22]
                                   0            -0             = 
    24 MorningPurchase[23]
                                   0            -0             = 
    25 MorningPurchase[24]
                                   0            -0             = 
    26 MorningPurchase[25]
                                   0            -0             = 
    27 NextDayMoney[2]
                                   0            -0             = 
    28 NextDayMoney[3]
                                   0            -0             = 
    29 NextDayMoney[4]
                                   0            -0             = 
    30 NextDayMoney[5]
                                   0            -0             = 
    31 NextDayMoney[6]
                                   0            -0             = 
    32 NextDayMoney[7]
                                   0            -0             = 
    33 NextDayMoney[8]
                                   0            -0             = 
    34 NextDayMoney[9]
                                   0            -0             = 
    35 NextDayMoney[10]
                                   0            -0             = 
    36 NextDayMoney[11]
                                   0            -0             = 
    37 NextDayMoney[12]
                                   0            -0             = 
    38 NextDayMoney[13]
                                   0            -0             = 
    39 NextDayMoney[14]
                                   0            -0             = 
    40 NextDayMoney[15]
                                   0            -0             = 
    41 NextDayMoney[16]
                                   0            -0             = 
    42 NextDayMoney[17]
                                   0            -0             = 
    43 NextDayMoney[18]
                                   0            -0             = 
    44 NextDayMoney[19]
                                   0            -0             = 
    45 NextDayMoney[20]
                                   0            -0             = 
    46 NextDayMoney[21]
                                   0            -0             = 
    47 NextDayMoney[22]
                                   0            -0             = 
    48 NextDayMoney[23]
                                   0            -0             = 
    49 NextDayMoney[24]
                                   0            -0             = 
    50 NextDayMoney[25]
                                   0            -0             = 
    51 FarmerCountInitial[Peasant,1]
                                   0            -0             = 
    52 FarmerCountInitial[Plower,1]
                                   0            -0             = 
    53 FarmerCountInitial[Plower,2]
                                   0            -0             = 
    54 FarmerCountInitial[Plower,3]
                                   0            -0             = 
    55 FarmerCountInitial[Harvester,1]
                                   0            -0             = 
    56 FarmerCountInitial[Harvester,2]
                                   0            -0             = 
    57 FarmerCountInitial[Harvester,3]
                                   0            -0             = 
    58 FarmerCountInitial[Harvester,4]
                                   0            -0             = 
    59 FarmerCountInitial[Harvester,5]
                                   0            -0             = 
    60 FarmerGrowth[Peasant,2]
                                   0            -0             = 
    61 FarmerGrowth[Peasant,3]
                                   0            -0             = 
    62 FarmerGrowth[Peasant,4]
                                   0            -0             = 
    63 FarmerGrowth[Peasant,5]
                                   0            -0             = 
    64 FarmerGrowth[Peasant,6]
                                   0            -0             = 
    65 FarmerGrowth[Peasant,7]
                                   0            -0             = 
    66 FarmerGrowth[Peasant,8]
                                   0            -0             = 
    67 FarmerGrowth[Peasant,9]
                                   0            -0             = 
    68 FarmerGrowth[Peasant,10]
                                   0            -0             = 
    69 FarmerGrowth[Peasant,11]
                                   0            -0             = 
    70 FarmerGrowth[Peasant,12]
                                   0            -0             = 
    71 FarmerGrowth[Peasant,13]
                                   0            -0             = 
    72 FarmerGrowth[Peasant,14]
                                   0            -0             = 
    73 FarmerGrowth[Peasant,15]
                                   0            -0             = 
    74 FarmerGrowth[Peasant,16]
                                   0            -0             = 
    75 FarmerGrowth[Peasant,17]
                                   0            -0             = 
    76 FarmerGrowth[Peasant,18]
                                   0            -0             = 
    77 FarmerGrowth[Peasant,19]
                                   0            -0             = 
    78 FarmerGrowth[Peasant,20]
                                   0            -0             = 
    79 FarmerGrowth[Peasant,21]
                                   0            -0             = 
    80 FarmerGrowth[Peasant,22]
                                   0            -0             = 
    81 FarmerGrowth[Peasant,23]
                                   0            -0             = 
    82 FarmerGrowth[Peasant,24]
                                   0            -0             = 
    83 FarmerGrowth[Peasant,25]
                                   0            -0             = 
    84 FarmerGrowth[Plower,4]
                                   0            -0             = 
    85 FarmerGrowth[Plower,5]
                                   0            -0             = 
    86 FarmerGrowth[Plower,6]
                                   0            -0             = 
    87 FarmerGrowth[Plower,7]
                                   0            -0             = 
    88 FarmerGrowth[Plower,8]
                                   0            -0             = 
    89 FarmerGrowth[Plower,9]
                                   0            -0             = 
    90 FarmerGrowth[Plower,10]
                                   0            -0             = 
    91 FarmerGrowth[Plower,11]
                                   0            -0             = 
    92 FarmerGrowth[Plower,12]
                                   0            -0             = 
    93 FarmerGrowth[Plower,13]
                                   0            -0             = 
    94 FarmerGrowth[Plower,14]
                                   0            -0             = 
    95 FarmerGrowth[Plower,15]
                                   0            -0             = 
    96 FarmerGrowth[Plower,16]
                                   0            -0             = 
    97 FarmerGrowth[Plower,17]
                                   0            -0             = 
    98 FarmerGrowth[Plower,18]
                                   0            -0             = 
    99 FarmerGrowth[Plower,19]
                                   0            -0             = 
   100 FarmerGrowth[Plower,20]
                                   0            -0             = 
   101 FarmerGrowth[Plower,21]
                                   0            -0             = 
   102 FarmerGrowth[Plower,22]
                                   0            -0             = 
   103 FarmerGrowth[Plower,23]
                                   0            -0             = 
   104 FarmerGrowth[Plower,24]
                                   0            -0             = 
   105 FarmerGrowth[Plower,25]
                                   0            -0             = 
   106 FarmerGrowth[Harvester,6]
                                   0            -0             = 
   107 FarmerGrowth[Harvester,7]
                                   0            -0             = 
   108 FarmerGrowth[Harvester,8]
                                   0            -0             = 
   109 FarmerGrowth[Harvester,9]
                                   0            -0             = 
   110 FarmerGrowth[Harvester,10]
                                   0            -0             = 
   111 FarmerGrowth[Harvester,11]
                                   0            -0             = 
   112 FarmerGrowth[Harvester,12]
                                   0            -0             = 
   113 FarmerGrowth[Harvester,13]
                                   0            -0             = 
   114 FarmerGrowth[Harvester,14]
                                   0            -0             = 
   115 FarmerGrowth[Harvester,15]
                                   0            -0             = 
   116 FarmerGrowth[Harvester,16]
                                   0            -0             = 
   117 FarmerGrowth[Harvester,17]
                                   0            -0             = 
   118 FarmerGrowth[Harvester,18]
                                   0            -0             = 
   119 FarmerGrowth[Harvester,19]
                                   0            -0             = 
   120 FarmerGrowth[Harvester,20]
                                   0            -0             = 
   121 FarmerGrowth[Harvester,21]
                                   0            -0             = 
   122 FarmerGrowth[Harvester,22]
                                   0            -0             = 
   123 FarmerGrowth[Harvester,23]
                                   0            -0             = 
   124 FarmerGrowth[Harvester,24]
                                   0            -0             = 
   125 FarmerGrowth[Harvester,25]
                                   0            -0             = 
   126 FinalMoney                322                             

   No. Column name       Activity     Lower bound   Upper bound
------ ------------    ------------- ------------- -------------
     1 moneyMorning[1]
                                  20             0               
     2 moneyMorning[2]
                                   0             0               
     3 moneyMorning[3]
                                   4             0               
     4 moneyMorning[4]
                                   8             0               
     5 moneyMorning[5]
                                  12             0               
     6 moneyMorning[6]
                                   6             0               
     7 moneyMorning[7]
                                  12             0               
     8 moneyMorning[8]
                                   8             0               
     9 moneyMorning[9]
                                  16             0               
    10 moneyMorning[10]
                                  14             0               
    11 moneyMorning[11]
                                  14             0               
    12 moneyMorning[12]
                                  16             0               
    13 moneyMorning[13]
                                  30             0               
    14 moneyMorning[14]
                                  14             0               
    15 moneyMorning[15]
                                  18             0               
    16 moneyMorning[16]
                                  34             0               
    17 moneyMorning[17]
                                  30             0               
    18 moneyMorning[18]
                                  26             0               
    19 moneyMorning[19]
                                  32             0               
    20 moneyMorning[20]
                                  42             0               
    21 moneyMorning[21]
                                  92             0               
    22 moneyMorning[22]
                                 142             0               
    23 moneyMorning[23]
                                 202             0               
    24 moneyMorning[24]
                                 262             0               
    25 moneyMorning[25]
                                 322             0               
    26 moneyAfterPurchase[1]
                                   0             0               
    27 moneyAfterPurchase[2]
                                   0             0               
    28 moneyAfterPurchase[3]
                                   4             0               
    29 moneyAfterPurchase[4]
                                   8             0               
    30 moneyAfterPurchase[5]
                                   2             0               
    31 moneyAfterPurchase[6]
                                   6             0               
    32 moneyAfterPurchase[7]
                                   2             0               
    33 moneyAfterPurchase[8]
                                   8             0               
    34 moneyAfterPurchase[9]
                                   6             0               
    35 moneyAfterPurchase[10]
                                   4             0               
    36 moneyAfterPurchase[11]
                                   4             0               
    37 moneyAfterPurchase[12]
                                  16             0               
    38 moneyAfterPurchase[13]
                                   0             0               
    39 moneyAfterPurchase[14]
                                   4             0               
    40 moneyAfterPurchase[15]
                                  18             0               
    41 moneyAfterPurchase[16]
                                   4             0               
    42 moneyAfterPurchase[17]
                                   0             0               
    43 moneyAfterPurchase[18]
                                   6             0               
    44 moneyAfterPurchase[19]
                                   2             0               
    45 moneyAfterPurchase[20]
                                  42             0               
    46 moneyAfterPurchase[21]
                                  92             0               
    47 moneyAfterPurchase[22]
                                 142             0               
    48 moneyAfterPurchase[23]
                                 202             0               
    49 moneyAfterPurchase[24]
                                 262             0               
    50 moneyAfterPurchase[25]
                                 322             0               
    51 buy[Peasant,1]
                    *              2             0               
    52 buy[Plower,1]
                    *              0             0               
    53 buy[Harvester,1]
                    *              0             0               
    54 buy[Peasant,2]
                    *              0             0               
    55 buy[Plower,2]
                    *              0             0               
    56 buy[Harvester,2]
                    *              0             0               
    57 buy[Peasant,3]
                    *              0             0               
    58 buy[Plower,3]
                    *              0             0               
    59 buy[Harvester,3]
                    *              0             0               
    60 buy[Peasant,4]
                    *              0             0               
    61 buy[Plower,4]
                    *              0             0               
    62 buy[Harvester,4]
                    *              0             0               
    63 buy[Peasant,5]
                    *              1             0               
    64 buy[Plower,5]
                    *              0             0               
    65 buy[Harvester,5]
                    *              0             0               
    66 buy[Peasant,6]
                    *              0             0               
    67 buy[Plower,6]
                    *              0             0               
    68 buy[Harvester,6]
                    *              0             0               
    69 buy[Peasant,7]
                    *              1             0               
    70 buy[Plower,7]
                    *              0             0               
    71 buy[Harvester,7]
                    *              0             0               
    72 buy[Peasant,8]
                    *              0             0               
    73 buy[Plower,8]
                    *              0             0               
    74 buy[Harvester,8]
                    *              0             0               
    75 buy[Peasant,9]
                    *              1             0               
    76 buy[Plower,9]
                    *              0             0               
    77 buy[Harvester,9]
                    *              0             0               
    78 buy[Peasant,10]
                    *              1             0               
    79 buy[Plower,10]
                    *              0             0               
    80 buy[Harvester,10]
                    *              0             0               
    81 buy[Peasant,11]
                    *              1             0               
    82 buy[Plower,11]
                    *              0             0               
    83 buy[Harvester,11]
                    *              0             0               
    84 buy[Peasant,12]
                    *              0             0               
    85 buy[Plower,12]
                    *              0             0               
    86 buy[Harvester,12]
                    *              0             0               
    87 buy[Peasant,13]
                    *              0             0               
    88 buy[Plower,13]
                    *              1             0               
    89 buy[Harvester,13]
                    *              0             0               
    90 buy[Peasant,14]
                    *              1             0               
    91 buy[Plower,14]
                    *              0             0               
    92 buy[Harvester,14]
                    *              0             0               
    93 buy[Peasant,15]
                    *              0             0               
    94 buy[Plower,15]
                    *              0             0               
    95 buy[Harvester,15]
                    *              0             0               
    96 buy[Peasant,16]
                    *              0             0               
    97 buy[Plower,16]
                    *              1             0               
    98 buy[Harvester,16]
                    *              0             0               
    99 buy[Peasant,17]
                    *              0             0               
   100 buy[Plower,17]
                    *              1             0               
   101 buy[Harvester,17]
                    *              0             0               
   102 buy[Peasant,18]
                    *              2             0               
   103 buy[Plower,18]
                    *              0             0               
   104 buy[Harvester,18]
                    *              0             0               
   105 buy[Peasant,19]
                    *              0             0               
   106 buy[Plower,19]
                    *              1             0               
   107 buy[Harvester,19]
                    *              0             0               
   108 buy[Peasant,20]
                    *              0             0               
   109 buy[Plower,20]
                    *              0             0               
   110 buy[Harvester,20]
                    *              0             0               
   111 buy[Peasant,21]
                    *              0             0               
   112 buy[Plower,21]
                    *              0             0               
   113 buy[Harvester,21]
                    *              0             0               
   114 buy[Peasant,22]
                    *              0             0               
   115 buy[Plower,22]
                    *              0             0               
   116 buy[Harvester,22]
                    *              0             0               
   117 buy[Peasant,23]
                    *              0             0               
   118 buy[Plower,23]
                    *              0             0               
   119 buy[Harvester,23]
                    *              0             0               
   120 buy[Peasant,24]
                    *              0             0               
   121 buy[Plower,24]
                    *              0             0               
   122 buy[Harvester,24]
                    *              0             0               
   123 buy[Peasant,25]
                    *              0             0               
   124 buy[Plower,25]
                    *              0             0               
   125 buy[Harvester,25]
                    *              0             0               
   126 farmers[Peasant,1]
                    *              0             0               
   127 farmers[Plower,1]
                    *              0             0               
   128 farmers[Harvester,1]
                    *              0             0               
   129 farmers[Peasant,2]
                    *              2             0               
   130 farmers[Plower,2]
                    *              0             0               
   131 farmers[Harvester,2]
                    *              0             0               
   132 farmers[Peasant,3]
                    *              2             0               
   133 farmers[Plower,3]
                    *              0             0               
   134 farmers[Harvester,3]
                    *              0             0               
   135 farmers[Peasant,4]
                    *              2             0               
   136 farmers[Plower,4]
                    *              0             0               
   137 farmers[Harvester,4]
                    *              0             0               
   138 farmers[Peasant,5]
                    *              2             0               
   139 farmers[Plower,5]
                    *              0             0               
   140 farmers[Harvester,5]
                    *              0             0               
   141 farmers[Peasant,6]
                    *              3             0               
   142 farmers[Plower,6]
                    *              0             0               
   143 farmers[Harvester,6]
                    *              0             0               
   144 farmers[Peasant,7]
                    *              3             0               
   145 farmers[Plower,7]
                    *              0             0               
   146 farmers[Harvester,7]
                    *              0             0               
   147 farmers[Peasant,8]
                    *              4             0               
   148 farmers[Plower,8]
                    *              0             0               
   149 farmers[Harvester,8]
                    *              0             0               
   150 farmers[Peasant,9]
                    *              4             0               
   151 farmers[Plower,9]
                    *              0             0               
   152 farmers[Harvester,9]
                    *              0             0               
   153 farmers[Peasant,10]
                    *              5             0               
   154 farmers[Plower,10]
                    *              0             0               
   155 farmers[Harvester,10]
                    *              0             0               
   156 farmers[Peasant,11]
                    *              6             0               
   157 farmers[Plower,11]
                    *              0             0               
   158 farmers[Harvester,11]
                    *              0             0               
   159 farmers[Peasant,12]
                    *              7             0               
   160 farmers[Plower,12]
                    *              0             0               
   161 farmers[Harvester,12]
                    *              0             0               
   162 farmers[Peasant,13]
                    *              7             0               
   163 farmers[Plower,13]
                    *              0             0               
   164 farmers[Harvester,13]
                    *              0             0               
   165 farmers[Peasant,14]
                    *              7             0               
   166 farmers[Plower,14]
                    *              0             0               
   167 farmers[Harvester,14]
                    *              0             0               
   168 farmers[Peasant,15]
                    *              8             0               
   169 farmers[Plower,15]
                    *              0             0               
   170 farmers[Harvester,15]
                    *              0             0               
   171 farmers[Peasant,16]
                    *              8             0               
   172 farmers[Plower,16]
                    *              1             0               
   173 farmers[Harvester,16]
                    *              0             0               
   174 farmers[Peasant,17]
                    *              8             0               
   175 farmers[Plower,17]
                    *              1             0               
   176 farmers[Harvester,17]
                    *              0             0               
   177 farmers[Peasant,18]
                    *              8             0               
   178 farmers[Plower,18]
                    *              1             0               
   179 farmers[Harvester,18]
                    *              0             0               
   180 farmers[Peasant,19]
                    *             10             0               
   181 farmers[Plower,19]
                    *              2             0               
   182 farmers[Harvester,19]
                    *              0             0               
   183 farmers[Peasant,20]
                    *             10             0               
   184 farmers[Plower,20]
                    *              3             0               
   185 farmers[Harvester,20]
                    *              0             0               
   186 farmers[Peasant,21]
                    *             10             0               
   187 farmers[Plower,21]
                    *              3             0               
   188 farmers[Harvester,21]
                    *              0             0               
   189 farmers[Peasant,22]
                    *             10             0               
   190 farmers[Plower,22]
                    *              4             0               
   191 farmers[Harvester,22]
                    *              0             0               
   192 farmers[Peasant,23]
                    *             10             0               
   193 farmers[Plower,23]
                    *              4             0               
   194 farmers[Harvester,23]
                    *              0             0               
   195 farmers[Peasant,24]
                    *             10             0               
   196 farmers[Plower,24]
                    *              4             0               
   197 farmers[Harvester,24]
                    *              0             0               
   198 farmers[Peasant,25]
                    *             10             0               
   199 farmers[Plower,25]
                    *              4             0               
   200 farmers[Harvester,25]
                    *              0             0               

Integer feasibility conditions:

KKT.PE: max.abs.err = 0.00e+00 on row 0
        max.rel.err = 0.00e+00 on row 0
        High quality

KKT.PB: max.abs.err = 0.00e+00 on row 0
        max.rel.err = 0.00e+00 on row 0
        High quality

End of output
